#######################################################
#CASTEP cell file: h2o/dft/0/c60.cell
#Created using the Atomic Simulation Environment (ASE)#
#######################################################

%BLOCK LATTICE_CART
20.000000  0.000000  0.000000
 0.000000 20.000000  0.000000
 0.000000  0.000000 20.000000
%ENDBLOCK LATTICE_CART

%BLOCK POSITIONS_ABS
C 12.314220 12.636362  9.302101
C 11.685275 12.938022 10.542610
C 11.628019 12.592237  8.058913
C 10.272681 12.997372  8.144009
C 13.085237 10.710950  8.024138
C 13.121090  9.282521  8.070283
C 13.249374 11.438341  9.322279
C 13.526110 10.671949 10.480844
C 12.091986 11.459228  7.202466
C 11.056191 10.765429  6.567008
C 10.317942 13.491573 10.557413
C  9.583692 13.425801  9.364852
C  9.694392 13.036141 11.745966
C  8.392934 12.537181 11.768821
C 11.950803 12.111823 11.743821
C 12.808703 11.130921 11.746770
C 10.684355 12.276094 12.530920
C 10.337225 11.090804 13.266782
C  8.192417 13.050264  9.310639
C  7.679357 12.607337 10.517587
C  7.933635 12.439734  8.075769
C  7.147573 11.226709  8.143296
C  9.228874 12.361442  7.298456
C  9.612239 11.195128  6.598754
C  6.700580 11.435811 10.616257
C  6.493223 10.748328  9.404218
C  6.872061 10.690032 11.826309
C  6.941916  9.295156 11.897171
C  7.947131 11.392596 12.575233
C  8.910078 10.689410 13.397612
C  6.485183  9.292002  9.400424
C  6.792289  8.573411 10.644564
C  7.142499  8.834062  8.134408
C  7.989164  7.776624  8.198771
C  7.585200 10.033966  7.433533
C  8.734110 10.038743  6.653393
C  7.679275  7.446885 10.641286
C  8.222937  7.068045  9.391905
C  8.374981  7.343303 11.886444
C  9.713303  6.985356 11.933882
C  7.942867  8.536206 12.661710
C  8.880698  9.224539 13.492453
C  9.637181  6.588947  9.450646
C 10.399399  6.495094 10.660162
C 10.282536  7.132894  8.224897
C 11.622381  7.451818  8.153769
C  9.310533  7.777022  7.403964
C  9.674395  8.937940  6.654668
C 11.837352  6.910503 10.658005
C 12.446686  7.385817  9.372958
C 12.029143  7.557883 11.883232
C 12.904996  8.749060 11.803764
C 10.705644  7.573517 12.687419
C 10.400084  8.738049 13.385027
C 13.326102  8.540163  9.406718
C 13.541993  9.274107 10.501483
C 12.044949  8.630251  7.365993
C 11.097266  9.322261  6.566114
C 12.461503  9.948894 12.520867
C 11.238442  9.956952 13.327486
O 10.040404 10.083850 11.059102
H 10.381023 10.783699 10.367225
H  9.425681  9.684540 10.428698
%ENDBLOCK POSITIONS_ABS

